;; sat

(declare-const x1 sl.list.loc)
(declare-const x2 sl.list.loc)
(declare-const x3 sl.list.loc)
(declare-const x4 sl.list.loc)
(declare-const x5 sl.list.loc)
(declare-const x6 sl.list.loc)
(declare-const x7 sl.list.loc)
(declare-const x8 sl.list.loc)
(declare-const x9 sl.list.loc)
(declare-const x10 sl.list.loc)
(declare-const x11 sl.list.loc)
(declare-const x12 sl.list.loc)
(declare-const x13 sl.list.loc)
(declare-const x14 sl.list.loc)
(declare-const x15 sl.list.loc)
(declare-const x16 sl.list.loc)
(declare-const x17 sl.list.loc)
(declare-const x18 sl.list.loc)
(declare-const x19 sl.list.loc)
(declare-const x20 sl.list.loc)
(declare-const x21 sl.list.loc)
(declare-const x22 sl.list.loc)
(declare-const x23 sl.list.loc)
(declare-const x24 sl.list.loc)
(declare-const x25 sl.list.loc)
(declare-const x26 sl.list.loc)
(declare-const x27 sl.list.loc)
(declare-const x28 sl.list.loc)

(assert (and (sl.sepcon (sl.sepcon (sl.sepcon (sl.sepcon (sl.sepcon (sl.sepcon (sl.sepcon (sl.sepcon (sl.sepcon (sl.sepcon (sl.sepcon (sl.sepcon (sl.sepcon (sl.sepcon (sl.sepcon (sl.sepcon (sl.sepcon (sl.sepcon (sl.sepcon (sl.sepcon (sl.sepcon (sl.sepcon (sl.sepcon (sl.sepcon (sl.sepcon (sl.sepcon (sl.sepcon (sl.sepcon (sl.sepcon (sl.sepcon (sl.sepcon (sl.sepcon (sl.sepcon (sl.sepcon (sl.sepcon (sl.sepcon (sl.list.eq sl.list.null sl.list.null)
 (sl.list.neq sl.list.null x1)
)
 (sl.list.neq sl.list.null x2)
)
 (sl.list.neq sl.list.null x3)
)
 (sl.list.neq x1 x3)
)
 (sl.list.neq x2 x3)
)
 (sl.list.neq sl.list.null x5)
)
 (sl.list.neq sl.list.null x6)
)
 (sl.list.neq sl.list.null x7)
)
 (sl.list.neq x5 x7)
)
 (sl.list.neq x6 x7)
)
 (sl.list.neq sl.list.null x9)
)
 (sl.list.neq sl.list.null x10)
)
 (sl.list.neq sl.list.null x11)
)
 (sl.list.neq x9 x11)
)
 (sl.list.neq x10 x11)
)
 (sl.list.neq sl.list.null x13)
)
 (sl.list.neq sl.list.null x14)
)
 (sl.list.neq sl.list.null x15)
)
 (sl.list.neq x13 x15)
)
 (sl.list.neq x14 x15)
)
 (sl.list.neq sl.list.null x17)
)
 (sl.list.neq sl.list.null x18)
)
 (sl.list.neq sl.list.null x19)
)
 (sl.list.neq x17 x19)
)
 (sl.list.neq x18 x19)
)
 (sl.list.neq sl.list.null x21)
)
 (sl.list.neq sl.list.null x22)
)
 (sl.list.neq sl.list.null x23)
)
 (sl.list.neq x21 x23)
)
 (sl.list.neq x22 x23)
)
 (sl.list.neq sl.list.null x25)
)
 (sl.list.neq sl.list.null x26)
)
 (sl.list.neq sl.list.null x27)
)
 (sl.list.neq x25 x27)
)
 (sl.list.neq x26 x27)
)
 (sl.sepcon (sl.sepcon (sl.sepcon (sl.sepcon (sl.sepcon (sl.sepcon (sl.sepcon (sl.sepcon (sl.sepcon (sl.sepcon (sl.sepcon (sl.sepcon (sl.sepcon (sl.sepcon (sl.sepcon (sl.sepcon (sl.sepcon (sl.sepcon (sl.sepcon (sl.sepcon (sl.list.seg x26 x25)
 (sl.list.next x27 x26)
)
 (sl.list.next x25 x27)
)
 (sl.list.seg x22 x21)
)
 (sl.list.next x23 x22)
)
 (sl.list.next x21 x23)
)
 (sl.list.seg x18 x17)
)
 (sl.list.next x19 x18)
)
 (sl.list.next x17 x19)
)
 (sl.list.seg x14 x13)
)
 (sl.list.next x15 x14)
)
 (sl.list.next x13 x15)
)
 (sl.list.seg x10 x9)
)
 (sl.list.next x11 x10)
)
 (sl.list.next x9 x11)
)
 (sl.list.seg x6 x5)
)
 (sl.list.next x7 x6)
)
 (sl.list.next x5 x7)
)
 (sl.list.seg x2 x1)
)
 (sl.list.next x3 x2)
)
 (sl.list.next x1 x3)
)
)
 (not (sl.sepcon (sl.sepcon (sl.sepcon (sl.sepcon (sl.sepcon (sl.sepcon (sl.sepcon (sl.sepcon (sl.sepcon (sl.sepcon (sl.sepcon (sl.sepcon (sl.sepcon (sl.sepcon (sl.sepcon (sl.sepcon (sl.sepcon (sl.sepcon (sl.sepcon (sl.sepcon (sl.list.next x28 x27)
 (sl.list.seg x26 x28)
)
 (sl.list.next x27 x26)
)
 (sl.list.next x24 x23)
)
 (sl.list.seg x22 x24)
)
 (sl.list.next x23 x22)
)
 (sl.list.next x20 x19)
)
 (sl.list.seg x18 x20)
)
 (sl.list.next x19 x18)
)
 (sl.list.next x16 x15)
)
 (sl.list.seg x14 x16)
)
 (sl.list.next x15 x14)
)
 (sl.list.next x12 x11)
)
 (sl.list.seg x10 x12)
)
 (sl.list.next x11 x10)
)
 (sl.list.next x8 x7)
)
 (sl.list.seg x6 x8)
)
 (sl.list.next x7 x6)
)
 (sl.list.next x4 x3)
)
 (sl.list.seg x2 x4)
)
 (sl.list.next x3 x2)
)
))
)

